language Essence 1.3

letting costTC be
        function((1, 1) --> 1, (1, 2) --> 1, (1, 3) --> 1, (1, 4) --> 1, (1, 5) --> 1, (1, 6) --> 1, (1, 7) --> 1,
                 (1, 8) --> 1, (1, 9) --> 1, (1, 10) --> 1, (1, 11) --> 1, (1, 12) --> 1, (2, 1) --> 1, (2, 2) --> 1,
                 (2, 3) --> 1, (2, 4) --> 1, (2, 5) --> 1, (2, 6) --> 1, (2, 7) --> 1, (2, 8) --> 1, (2, 9) --> 1,
                 (2, 10) --> 1, (2, 11) --> 1, (2, 12) --> 1, (3, 1) --> 1, (3, 2) --> 1, (3, 3) --> 1, (3, 4) --> 1,
                 (3, 5) --> 1, (3, 6) --> 1, (3, 7) --> 1, (3, 8) --> 1, (3, 9) --> 1, (3, 10) --> 1, (3, 11) --> 1,
                 (3, 12) --> 1, (4, 1) --> 1, (4, 2) --> 1, (4, 3) --> 1, (4, 4) --> 1, (4, 5) --> 1, (4, 6) --> 1,
                 (4, 7) --> 1, (4, 8) --> 1, (4, 9) --> 1, (4, 10) --> 1, (4, 11) --> 1, (4, 12) --> 1, (5, 1) --> 1,
                 (5, 2) --> 1, (5, 3) --> 1, (5, 4) --> 1, (5, 5) --> 1, (5, 6) --> 1, (5, 7) --> 1, (5, 8) --> 1,
                 (5, 9) --> 1, (5, 10) --> 1, (5, 11) --> 1, (5, 12) --> 1, (6, 1) --> 1, (6, 2) --> 1, (6, 3) --> 1,
                 (6, 4) --> 1, (6, 5) --> 1, (6, 6) --> 1, (6, 7) --> 1, (6, 8) --> 1, (6, 9) --> 1, (6, 10) --> 1,
                 (6, 11) --> 1, (6, 12) --> 1, (7, 1) --> 1, (7, 2) --> 1, (7, 3) --> 1, (7, 4) --> 1, (7, 5) --> 1,
                 (7, 6) --> 1, (7, 7) --> 1, (7, 8) --> 1, (7, 9) --> 1, (7, 10) --> 1, (7, 11) --> 1, (7, 12) --> 1,
                 (8, 1) --> 1, (8, 2) --> 1, (8, 3) --> 1, (8, 4) --> 1, (8, 5) --> 1, (8, 6) --> 1, (8, 7) --> 1,
                 (8, 8) --> 1, (8, 9) --> 1, (8, 10) --> 1, (8, 11) --> 1, (8, 12) --> 1, (9, 1) --> 1, (9, 2) --> 1,
                 (9, 3) --> 1, (9, 4) --> 1, (9, 5) --> 1, (9, 6) --> 1, (9, 7) --> 1, (9, 8) --> 1, (9, 9) --> 1,
                 (9, 10) --> 1, (9, 11) --> 1, (9, 12) --> 1, (10, 1) --> 1, (10, 2) --> 1, (10, 3) --> 1,
                 (10, 4) --> 1, (10, 5) --> 1, (10, 6) --> 1, (10, 7) --> 1, (10, 8) --> 1, (10, 9) --> 1,
                 (10, 10) --> 1, (10, 11) --> 1, (10, 12) --> 1, (11, 1) --> 1, (11, 2) --> 1, (11, 3) --> 1,
                 (11, 4) --> 1, (11, 5) --> 1, (11, 6) --> 1, (11, 7) --> 1, (11, 8) --> 1, (11, 9) --> 1,
                 (11, 10) --> 1, (11, 11) --> 1, (11, 12) --> 1, (12, 1) --> 1, (12, 2) --> 1, (12, 3) --> 1,
                 (12, 4) --> 1, (12, 5) --> 1, (12, 6) --> 1, (12, 7) --> 1, (12, 8) --> 1, (12, 9) --> 1,
                 (12, 10) --> 1, (12, 11) --> 1, (12, 12) --> 1, (13, 1) --> 1, (13, 2) --> 1, (13, 3) --> 1,
                 (13, 4) --> 1, (13, 5) --> 1, (13, 6) --> 1, (13, 7) --> 1, (13, 8) --> 1, (13, 9) --> 1,
                 (13, 10) --> 1, (13, 11) --> 1, (13, 12) --> 1, (14, 1) --> 1, (14, 2) --> 1, (14, 3) --> 1,
                 (14, 4) --> 1, (14, 5) --> 1, (14, 6) --> 1, (14, 7) --> 1, (14, 8) --> 1, (14, 9) --> 1,
                 (14, 10) --> 1, (14, 11) --> 1, (14, 12) --> 1, (15, 1) --> 1, (15, 2) --> 1, (15, 3) --> 1,
                 (15, 4) --> 1, (15, 5) --> 1, (15, 6) --> 1, (15, 7) --> 1, (15, 8) --> 1, (15, 9) --> 1,
                 (15, 10) --> 1, (15, 11) --> 1, (15, 12) --> 1, (16, 1) --> 1, (16, 2) --> 1, (16, 3) --> 1,
                 (16, 4) --> 1, (16, 5) --> 1, (16, 6) --> 1, (16, 7) --> 1, (16, 8) --> 1, (16, 9) --> 1,
                 (16, 10) --> 1, (16, 11) --> 1, (16, 12) --> 1, (17, 1) --> 1, (17, 2) --> 1, (17, 3) --> 1,
                 (17, 4) --> 1, (17, 5) --> 1, (17, 6) --> 1, (17, 7) --> 1, (17, 8) --> 1, (17, 9) --> 1,
                 (17, 10) --> 1, (17, 11) --> 1, (17, 12) --> 1, (18, 1) --> 1, (18, 2) --> 1, (18, 3) --> 1,
                 (18, 4) --> 1, (18, 5) --> 1, (18, 6) --> 1, (18, 7) --> 1, (18, 8) --> 1, (18, 9) --> 1,
                 (18, 10) --> 1, (18, 11) --> 1, (18, 12) --> 1, (19, 1) --> 1, (19, 2) --> 1, (19, 3) --> 1,
                 (19, 4) --> 1, (19, 5) --> 1, (19, 6) --> 1, (19, 7) --> 1, (19, 8) --> 1, (19, 9) --> 1,
                 (19, 10) --> 1, (19, 11) --> 1, (19, 12) --> 1, (20, 1) --> 1, (20, 2) --> 1, (20, 3) --> 1,
                 (20, 4) --> 1, (20, 5) --> 1, (20, 6) --> 1, (20, 7) --> 1, (20, 8) --> 1, (20, 9) --> 1,
                 (20, 10) --> 1, (20, 11) --> 1, (20, 12) --> 1)
letting costWT be
        function((1, 1) --> 1, (1, 2) --> 3, (1, 3) --> 2, (1, 4) --> 2, (1, 5) --> 2, (1, 6) --> 3, (1, 7) --> 1,
                 (1, 8) --> 3, (1, 9) --> 1, (1, 10) --> 2, (1, 11) --> 2, (1, 12) --> 2, (1, 13) --> 2, (1, 14) --> 3,
                 (1, 15) --> 2, (1, 16) --> 3, (1, 17) --> 3, (1, 18) --> 1, (1, 19) --> 2, (1, 20) --> 2, (2, 1) --> 1,
                 (2, 2) --> 2, (2, 3) --> 3, (2, 4) --> 3, (2, 5) --> 3, (2, 6) --> 3, (2, 7) --> 3, (2, 8) --> 2,
                 (2, 9) --> 2, (2, 10) --> 1, (2, 11) --> 1, (2, 12) --> 2, (2, 13) --> 3, (2, 14) --> 3, (2, 15) --> 3,
                 (2, 16) --> 3, (2, 17) --> 3, (2, 18) --> 1, (2, 19) --> 2, (2, 20) --> 2, (3, 1) --> 3, (3, 2) --> 1,
                 (3, 3) --> 2, (3, 4) --> 1, (3, 5) --> 1, (3, 6) --> 1, (3, 7) --> 2, (3, 8) --> 3, (3, 9) --> 3,
                 (3, 10) --> 3, (3, 11) --> 2, (3, 12) --> 1, (3, 13) --> 1, (3, 14) --> 3, (3, 15) --> 3,
                 (3, 16) --> 1, (3, 17) --> 2, (3, 18) --> 1, (3, 19) --> 2, (3, 20) --> 3, (4, 1) --> 1, (4, 2) --> 3,
                 (4, 3) --> 3, (4, 4) --> 1, (4, 5) --> 1, (4, 6) --> 2, (4, 7) --> 2, (4, 8) --> 2, (4, 9) --> 1,
                 (4, 10) --> 3, (4, 11) --> 1, (4, 12) --> 2, (4, 13) --> 3, (4, 14) --> 3, (4, 15) --> 1,
                 (4, 16) --> 2, (4, 17) --> 2, (4, 18) --> 2, (4, 19) --> 2, (4, 20) --> 1, (5, 1) --> 1, (5, 2) --> 1,
                 (5, 3) --> 1, (5, 4) --> 3, (5, 5) --> 2, (5, 6) --> 1, (5, 7) --> 3, (5, 8) --> 1, (5, 9) --> 2,
                 (5, 10) --> 3, (5, 11) --> 3, (5, 12) --> 2, (5, 13) --> 1, (5, 14) --> 3, (5, 15) --> 2,
                 (5, 16) --> 3, (5, 17) --> 2, (5, 18) --> 2, (5, 19) --> 3, (5, 20) --> 1, (6, 1) --> 2, (6, 2) --> 3,
                 (6, 3) --> 3, (6, 4) --> 1, (6, 5) --> 3, (6, 6) --> 3, (6, 7) --> 1, (6, 8) --> 1, (6, 9) --> 1,
                 (6, 10) --> 3, (6, 11) --> 1, (6, 12) --> 2, (6, 13) --> 1, (6, 14) --> 1, (6, 15) --> 3,
                 (6, 16) --> 1, (6, 17) --> 2, (6, 18) --> 1, (6, 19) --> 2, (6, 20) --> 2, (7, 1) --> 3, (7, 2) --> 3,
                 (7, 3) --> 3, (7, 4) --> 3, (7, 5) --> 3, (7, 6) --> 2, (7, 7) --> 3, (7, 8) --> 1, (7, 9) --> 3,
                 (7, 10) --> 1, (7, 11) --> 2, (7, 12) --> 1, (7, 13) --> 1, (7, 14) --> 3, (7, 15) --> 1,
                 (7, 16) --> 1, (7, 17) --> 1, (7, 18) --> 2, (7, 19) --> 2, (7, 20) --> 2, (8, 1) --> 2, (8, 2) --> 2,
                 (8, 3) --> 3, (8, 4) --> 3, (8, 5) --> 1, (8, 6) --> 2, (8, 7) --> 3, (8, 8) --> 3, (8, 9) --> 3,
                 (8, 10) --> 3, (8, 11) --> 3, (8, 12) --> 1, (8, 13) --> 2, (8, 14) --> 2, (8, 15) --> 3,
                 (8, 16) --> 3, (8, 17) --> 3, (8, 18) --> 1, (8, 19) --> 3, (8, 20) --> 1, (9, 1) --> 2, (9, 2) --> 2,
                 (9, 3) --> 2, (9, 4) --> 2, (9, 5) --> 2, (9, 6) --> 3, (9, 7) --> 1, (9, 8) --> 1, (9, 9) --> 3,
                 (9, 10) --> 2, (9, 11) --> 1, (9, 12) --> 2, (9, 13) --> 1, (9, 14) --> 2, (9, 15) --> 2,
                 (9, 16) --> 2, (9, 17) --> 2, (9, 18) --> 2, (9, 19) --> 2, (9, 20) --> 3, (10, 1) --> 3,
                 (10, 2) --> 1, (10, 3) --> 1, (10, 4) --> 1, (10, 5) --> 3, (10, 6) --> 3, (10, 7) --> 1,
                 (10, 8) --> 2, (10, 9) --> 1, (10, 10) --> 1, (10, 11) --> 3, (10, 12) --> 1, (10, 13) --> 3,
                 (10, 14) --> 1, (10, 15) --> 1, (10, 16) --> 1, (10, 17) --> 1, (10, 18) --> 1, (10, 19) --> 1,
                 (10, 20) --> 1, (11, 1) --> 2, (11, 2) --> 1, (11, 3) --> 3, (11, 4) --> 3, (11, 5) --> 2,
                 (11, 6) --> 1, (11, 7) --> 3, (11, 8) --> 3, (11, 9) --> 1, (11, 10) --> 1, (11, 11) --> 2,
                 (11, 12) --> 2, (11, 13) --> 2, (11, 14) --> 1, (11, 15) --> 2, (11, 16) --> 1, (11, 17) --> 3,
                 (11, 18) --> 2, (11, 19) --> 1, (11, 20) --> 1, (12, 1) --> 3, (12, 2) --> 2, (12, 3) --> 1,
                 (12, 4) --> 2, (12, 5) --> 2, (12, 6) --> 3, (12, 7) --> 3, (12, 8) --> 3, (12, 9) --> 3,
                 (12, 10) --> 1, (12, 11) --> 2, (12, 12) --> 1, (12, 13) --> 2, (12, 14) --> 1, (12, 15) --> 2,
                 (12, 16) --> 3, (12, 17) --> 2, (12, 18) --> 2, (12, 19) --> 3, (12, 20) --> 1, (13, 1) --> 2,
                 (13, 2) --> 3, (13, 3) --> 1, (13, 4) --> 1, (13, 5) --> 2, (13, 6) --> 3, (13, 7) --> 2,
                 (13, 8) --> 1, (13, 9) --> 1, (13, 10) --> 3, (13, 11) --> 1, (13, 12) --> 1, (13, 13) --> 2,
                 (13, 14) --> 1, (13, 15) --> 2, (13, 16) --> 1, (13, 17) --> 3, (13, 18) --> 3, (13, 19) --> 3,
                 (13, 20) --> 1, (14, 1) --> 3, (14, 2) --> 3, (14, 3) --> 3, (14, 4) --> 1, (14, 5) --> 3,
                 (14, 6) --> 3, (14, 7) --> 1, (14, 8) --> 2, (14, 9) --> 3, (14, 10) --> 3, (14, 11) --> 1,
                 (14, 12) --> 1, (14, 13) --> 3, (14, 14) --> 1, (14, 15) --> 3, (14, 16) --> 3, (14, 17) --> 2,
                 (14, 18) --> 3, (14, 19) --> 3, (14, 20) --> 3, (15, 1) --> 3, (15, 2) --> 2, (15, 3) --> 3,
                 (15, 4) --> 2, (15, 5) --> 2, (15, 6) --> 1, (15, 7) --> 3, (15, 8) --> 3, (15, 9) --> 1,
                 (15, 10) --> 1, (15, 11) --> 2, (15, 12) --> 2, (15, 13) --> 2, (15, 14) --> 2, (15, 15) --> 2,
                 (15, 16) --> 2, (15, 17) --> 3, (15, 18) --> 1, (15, 19) --> 3, (15, 20) --> 3, (16, 1) --> 1,
                 (16, 2) --> 1, (16, 3) --> 1, (16, 4) --> 2, (16, 5) --> 1, (16, 6) --> 3, (16, 7) --> 1,
                 (16, 8) --> 3, (16, 9) --> 2, (16, 10) --> 1, (16, 11) --> 1, (16, 12) --> 1, (16, 13) --> 3,
                 (16, 14) --> 1, (16, 15) --> 3, (16, 16) --> 2, (16, 17) --> 1, (16, 18) --> 3, (16, 19) --> 3,
                 (16, 20) --> 1, (17, 1) --> 1, (17, 2) --> 2, (17, 3) --> 2, (17, 4) --> 3, (17, 5) --> 2,
                 (17, 6) --> 1, (17, 7) --> 2, (17, 8) --> 2, (17, 9) --> 3, (17, 10) --> 3, (17, 11) --> 2,
                 (17, 12) --> 1, (17, 13) --> 1, (17, 14) --> 2, (17, 15) --> 1, (17, 16) --> 3, (17, 17) --> 3,
                 (17, 18) --> 3, (17, 19) --> 2, (17, 20) --> 2, (18, 1) --> 3, (18, 2) --> 3, (18, 3) --> 1,
                 (18, 4) --> 1, (18, 5) --> 3, (18, 6) --> 2, (18, 7) --> 3, (18, 8) --> 2, (18, 9) --> 2,
                 (18, 10) --> 3, (18, 11) --> 1, (18, 12) --> 3, (18, 13) --> 3, (18, 14) --> 2, (18, 15) --> 2,
                 (18, 16) --> 3, (18, 17) --> 1, (18, 18) --> 1, (18, 19) --> 1, (18, 20) --> 2)
letting demand be
        function(1 --> 38, 2 --> 13, 3 --> 37, 4 --> 21, 5 --> 37, 6 --> 34, 7 --> 20, 8 --> 36, 9 --> 25, 10 --> 14,
                 11 --> 32, 12 --> 39)
letting maxCost be 36
letting n_customer be 12
letting n_transshipment be 20
letting n_warehouses be 18
letting stock be
        function(1 --> 32, 2 --> 32, 3 --> 32, 4 --> 32, 5 --> 32, 6 --> 32, 7 --> 32, 8 --> 32, 9 --> 32, 10 --> 32,
                 11 --> 32, 12 --> 32, 13 --> 32, 14 --> 32, 15 --> 32, 16 --> 32, 17 --> 32, 18 --> 32)
